CMD:
./solvers/bin/cadical --plain --no-reduce -t 1600 ./data/cnfs//6s20/6s20.47.cnf

c --- [ banner ] -------------------------------------------------------------
c 
c CaDiCaL SAT Solver
c Copyright (c) 2016-2024
c A. Biere, M. Fleury, N. Froleyks, K. Fazekas, F. Pollitt, T. Faller
c JKU Linz, University of Freiburg, TU Wien
c 
c Version 2.1.3 5296d3d2a9bf48c154ab2acb5e44625776d821bf
c g++ (Gentoo 12.3.1_p20230526 p2) 12.3.1 20230526 -Wall -Wextra -O3 -DNDEBUG
c Sat Aug 9 07:26:21 PDT 2025 Linux cedar2.int.cedar.computecanada.ca 5.14.0-362.24.2.el9_3.x86_64 x86_64
c 
c --- [ limit ] --------------------------------------------------------------
c 
c setting time limit to 1600 seconds real time (due to '-t 1600')
c 
c --- [ parsing input ] ------------------------------------------------------
c 
c reading DIMACS file from './data/cnfs//6s20/6s20.47.cnf'
c opening file to read './data/cnfs//6s20/6s20.47.cnf'
c found 'p cnf 1454697 4356489' header
c parsed 4356489 clauses in 0.77 seconds process time
c 
c --- [ options ] ------------------------------------------------------------
c 
c   --compact=false                (different from default 'true')
c   --decompose=false              (different from default 'true')
c   --deduplicate=false            (different from default 'true')
c   --elim=false                   (different from default 'true')
c   --probe=false                  (different from default 'true')
c   --reduce=false                 (different from default 'true')
c   --subsume=false                (different from default 'true')
c   --ternary=false                (different from default 'true')
c   --transred=false               (different from default 'true')
c   --vivify=false                 (different from default 'true')
c 
c --- [ solving ] ------------------------------------------------------------
c 
c time measured in process time since initialization
c 
c  seconds   reductions  redundant   irredundant
c          MB    restarts       trail         variables
c           level   conflicts       glue            remaining
c 
c *  0.77 665  0 0   0    0    0  0% 0 4341671 1450232 100%
c {  0.79 666  0 0   0    0    0  0% 0 4341671 1450232 100%
c i  1.17 673 81 0  32  274  267  6% 6 4341671 1450230 100%
c i  1.17 673 81 0  32  276  268  6% 6 4341671 1450225 100%
c i  1.39 676 86 0  44  646  569  5% 5 4341671 1450223 100%
c i  1.39 676 86 0  44  648  570  5% 5 4341671 1450218 100%
c i  1.44 677 69 0  44  882  782  4% 5 4341671 1450217 100%
c i  1.45 677 65 0  47  955  848  4% 5 4341671 1450212 100%
c }  1.45 677 63 0  47 1001  892  4% 5 4341671 1450212 100%
c [  1.45 677  0 0  47 1001  892  0% 0 4341671 1450212 100%
c O  1.49 677  1 0  47 1002  892  2% 0 4341671 1450212 100%
c i  1.49 677  1 0  47 1002  892  2% 0 4341671 1450102 100%
c i  1.52 677 71 0  47 1010  899  4% 2 4341671 1450101 100%
c i  2.94 690 1353 0  48 2153 1980 61% 8 4341671 1449472 100%
c ]  3.86 690 1199 0  48 3013 2766 61% 7 4341671 1449472 100%
c {  3.86 690 63 0  48 3013 2766  4% 5 4341671 1449472 100%
c F  3.88 690 63 0  48 3014 2767  4% 5 4341671 1449472 100%
c i  3.90 690 60 0  48 3072 2820  4% 5 4341671 1449470 100%
c i  3.90 690 60 0  48 3077 2824  4% 5 4341671 1449465 100%
c i  4.01 690 57 0  52 3252 2979  4% 4 4341671 1449460 100%
c 
c  seconds   reductions  redundant   irredundant
c          MB    restarts       trail         variables
c           level   conflicts       glue            remaining
c 
c i  4.24 691 79 0  66 3467 3186  5% 4 4341671 1449458 100%
c i  4.24 691 79 0  67 3468 3186  5% 4 4341671 1449456 100%
c i  4.24 691 79 0  67 3472 3189  5% 4 4341671 1449443 100%
c i  4.27 691 78 0  67 3487 3202  5% 4 4341671 1449442 100%
c i  4.27 691 78 0  67 3489 3203  5% 4 4341671 1449441 100%
c i  4.53 692 104 0  70 3839 3531  8% 4 4341671 1449437 100%
c i  4.70 693 111 0  78 4018 3694  9% 4 4341671 1449435 100%
c i  4.71 693 108 0  78 4087 3753  9% 4 4341671 1449434 100%
c i  4.72 693 107 0  78 4104 3768  8% 4 4341671 1449432 100%
c i  4.91 693 105 0  89 4370 4010  8% 4 4341671 1449162 100%
c i  5.07 693 104 0 102 4443 4061  8% 4 4341671 1449139 100%
c i  5.10 693 103 0 111 4471 4087  8% 4 4341671 1449132 100%
c i  5.23 693 100 0 139 4700 4291  8% 4 4341671 1449130 100%
c i  5.23 693 100 0 139 4702 4292  8% 4 4341671 1449114 100%
c i  5.29 693 99 0 143 4771 4354  8% 4 4341671 1449112 100%
c i  5.29 693 99 0 143 4787 4366  8% 4 4341671 1449107 100%
c i  5.31 693 99 0 145 4817 4392  8% 4 4341671 1449105 100%
c i  5.31 693 99 0 145 4822 4396  8% 4 4341671 1449062 100%
c i  5.41 693 97 0 162 5015 4566  7% 4 4341671 1449043 100%
c i  5.53 694 94 0 169 5293 4829  7% 4 4341671 1448927 100%
c 
c  seconds   reductions  redundant   irredundant
c          MB    restarts       trail         variables
c           level   conflicts       glue            remaining
c 
c i  5.53 694 94 0 169 5300 4833  7% 4 4341671 1448901 100%
c i  5.56 694 94 0 169 5435 4955  7% 4 4341671 1443877 99%
c i  5.64 694 93 0 179 5515 5026  7% 4 4341671 1443733 99%
c i  5.71 694 93 0 185 5544 5053  7% 4 4341671 1441103 99%
... skipped 1138 lines ...
c W 1244.39 1059 589 0 41642 741089 683228 49% 24 4238651 1422970 98%
c i 1248.57 1059 591 0 41642 744037 686002 49% 24 4238651 1422968 98%
c I 1334.88 1059 593 0 41643 780094 720457 58% 24 4238651 1422968 98%
c 
c   seconds      reductions       redundant     irredundant
c            MB       restarts            trail          variables
c               level      conflicts          glue             remaining
c 
c i 1338.11 1059 585 0 41643 782270 722539 58% 23 4238651 1422963 98%
c i 1339.43 1059 582 0 41643 783159 723385 58% 23 4238651 1422962 98%
c i 1339.43 1059 582 0 41643 783163 723387 58% 23 4238651 1422961 98%
c i 1341.56 1059 578 0 41643 784494 724634 57% 23 4238651 1422937 98%
c i 1343.46 1059 574 0 41643 785852 725919 57% 23 4238651 1422936 98%
c i 1349.12 1058 561 0 41643 789967 729842 56% 23 4238651 1422935 98%
c i 1349.46 1058 560 0 41643 790174 730038 56% 23 4238651 1422924 98%
c i 1351.22 1058 555 0 41643 791713 731474 55% 23 4238651 1422892 98%
c i 1353.06 1058 552 0 41643 792682 732363 55% 23 4238651 1422891 98%
c i 1386.77 1058 495 0 41643 812473 751238 51% 22 4238651 1422886 98%
c i 1388.16 1058 492 0 41644 813316 752040 51% 22 4238651 1422885 98%
c i 1390.24 1058 487 0 41646 815187 753836 50% 22 4238651 1422884 98%
c B 1397.25 1058 496 0 41649 820098 758480 50% 22 4238651 1422884 98%
c i 1397.40 1058 496 0 41649 820195 758572 50% 22 4238651 1422868 98%
c i 1407.06 1058 484 0 41652 826998 765083 49% 22 4238651 1422836 98%
c i 1464.05 1058 468 0 41665 858171 794281 45% 23 4238651 1422832 98%
c W 1474.03 1136 468 0 41667 861099 796959 45% 24 4238162 1422831 98%
c i 1475.96 1136 466 0 41668 862120 797921 45% 24 4238162 1422830 98%
c i 1483.91 1136 459 0 41670 865842 801425 45% 24 4238162 1422828 98%
c i 1491.21 1136 463 0 41672 869986 805369 45% 24 4238162 1422827 98%
c 
c   seconds      reductions       redundant     irredundant
c            MB       restarts            trail          variables
c               level      conflicts          glue             remaining
c 
c i 1491.79 1136 463 0 41672 870152 805513 45% 24 4238162 1422826 98%
c O 1545.00 1136 507 0 41679 903100 836791 45% 27 4238162 1422826 98%
c i 1546.32 1136 501 0 41680 904458 838099 44% 27 4238162 1422825 98%
c i 1567.42 1136 462 0 41688 918340 851313 42% 26 4238162 1422733 98%
c i 1567.42 1136 462 0 41688 918342 851314 42% 26 4238162 1422716 98%
c i 1567.42 1136 462 0 41688 918346 851317 42% 26 4238162 1421941 98%
c i 1567.66 1136 462 0 41688 918433 851397 42% 26 4238162 1421938 98%
c i 1567.67 1136 462 0 41688 918439 851402 42% 26 4238162 1421935 98%
c i 1568.31 1136 461 0 41688 918890 851797 42% 26 4238162 1421932 98%
c i 1572.44 1136 457 0 41688 920845 853673 42% 25 4238162 1421714 98%
c i 1575.53 1136 455 0 41688 922236 854968 42% 25 4238162 1421596 98%
c ] 1591.16 1136 469 0 41689 929360 861861 45% 25 4238162 1421509 98%
c ? 1591.16 1136 469 0 41689 929360 861861 45% 25 4238162 1421509 98%
c 
c --- [ result ] -------------------------------------------------------------
c 
c UNKNOWN
c 
c --- [ run-time profiling ] -------------------------------------------------
c 
c process time taken by individual solving procedures
c (percentage relative to process time for solving)
c 
c      1590.38  100.00% search
c      1008.44   63.41% stable
c       567.00   35.65% unstable
c        14.92    0.94% walk
c         0.77    0.05% parse
c         0.02    0.00% lucky
c         0.00    0.00% simplify
c   =================================
c      1590.38   99.95% solve
c 
c last line shows process time for solving
c (percentage relative to total process time)
c 
c --- [ statistics ] ---------------------------------------------------------
c 
c chronological:            346246        37.26 %  of conflicts
c conflicts:                929360       584.36    per second
c decisions:               3930096      2471.16    per second
c fixed:                     33188         2.28 %  of all variables
c learned:                  895966        96.41 %  per conflict
c learned_lits:          131580433       100.00 %  learned literals
c minimized:                     0         0.00 %  learned literals
c shrunken:                9579181         7.28 %  learned literals
c minishrunken:           35961986        27.33 %  learned literals
c otfs:                       3573         0.38 %  of conflict
c propagations:        10980400308         6.90 M  per second
c rephased:                     42     22127.62    interval
c restarts:                  41689        22.29    interval
c stabilizing:                   5        63.30 %  of conflicts
c subsumed:                  29767         0.57 %  of all clauses
c strengthened:               3482         0.07 %  of all clauses
c walked:                       13     71489.23    interval
c 
c seconds are measured in process time for solving
c 
c --- [ resources ] ----------------------------------------------------------
c 
c total process time since initialization:      1591.16    seconds
c total real time since initialization:         1600.04    seconds
c maximum resident set size of process:         1492.09    MB
c 
c --- [ shutting down ] ------------------------------------------------------
c 
c exit 0
